c Sudoku solution
p cnf 729 0
126 0
224 0
247 0
288 0
366 0
371 0
383 0
411 0
444 0
495 0
552 0
578 0
625 0
687 0
696 0
276 0
742 0
773 0
593 0
581 0
674 0
818 0
854 0
164 0
262 0
394 0
299 0
882 0
185 0
489 0
472 0
177 0
192 0
917 0
929 0
932 0
721 0
823 0
984 0
786 0
836 0
975 0
879 0
516 0
534 0
456 0
714 0
735 0
322 0
337 0
138 0
231 0
612 0
428 0
527 0
433 0
639 0
467 0
946 0
757 0
769 0
798 0
897 0
991 0
565 0
549 0
861 0
845 0
348 0
968 0
953 0
255 0
143 0
151 0
359 0
119 0
213 0
315 0
641 0
658 0
663 0
